(declare-const p275 Real)
(declare-const fee_bl Real)
(declare-const p025 Real)
(declare-const p075 Real)
(declare-const p175 Real)
(declare-const p475 Real)
(declare-const p375 Real)
(declare-const income Real)
(assert (= p025 (* 0.0025 (ite (> income 1000) 1000 income))))
(assert (= p075 (ite (> income 1000) (* 0.0075 (- (ite (> income 2500) 2500 income) 1000)) 0)))
(assert (= p175 (ite (> income 2500) (* 0.0175 (- (ite (> income 3750) 3750 income) 2500)) 0)))
(assert (= p275 (ite (> income 3750) (* 0.0275 (- (ite (> income 4900) 4900 income) 3750)) 0)))
(assert (= p375 (ite (> income 4900) (* 0.0375 (- (ite (> income 7200) 7200 income) 4900)) 0)))
(assert (= p475 (ite (> income 7200) (* 0.0475 (- income 7200)) 0)))
(assert (= fee_bl (+ (+ (+ (+ (+ p025 p075) p175) p275) p375) p475)))